
Gurobi 11.0.3 (linux64) logging started Sat Nov 23 16:34:35 2024

Set parameter LogFile to value "/home/yihong/Coding/OR_SUC/SUC_results_bigM100000_thread4/case24_ieee_rts_theta0.5_epsilon0.025_gurobi_seed920000_num_gen100_N_WDR50_load_scaling_factor1_proposed_T24quadra_cost.txt"
Set parameter TimeLimit to value 3600
Gurobi Optimizer version 11.0.3 build v11.0.3rc0 (linux64 - "Ubuntu 20.04.6 LTS")

CPU model: AMD EPYC 7532 32-Core Processor, instruction set [SSE2|AVX|AVX2]
Thread count: 64 physical cores, 128 logical processors, using up to 4 threads

Optimize a model with 50020 rows, 29811 columns and 506326 nonzeros
Model fingerprint: 0x752f97b4
Model has 2400 quadratic constraints
Variable types: 27411 continuous, 2400 integer (2400 binary)
Coefficient statistics:
  Matrix range     [3e-04, 2e+03]
  QMatrix range    [2e-03, 8e-03]
  QLMatrix range   [7e-01, 6e+01]
  Objective range  [1e+00, 1e+00]
  Bounds range     [1e+00, 1e+00]
  RHS range        [1e+00, 9e+03]
Presolve removed 40332 rows and 12932 columns
Presolve time: 0.21s
Presolved: 9688 rows, 16879 columns, 51768 nonzeros
Presolved model has 2400 quadratic constraint(s)
Variable types: 14479 continuous, 2400 integer (2400 binary)

Root relaxation: objective 6.893256e+04, 7741 iterations, 0.17 seconds (0.24 work units)

    Nodes    |    Current Node    |     Objective Bounds      |     Work
 Expl Unexpl |  Obj  Depth IntInf | Incumbent    BestBd   Gap | It/Node Time

H    0     0                    671846.25207 68932.5567  89.7%     -    0s
*    0     0               0    671846.25207 68932.5567  89.7%     -    0s
     0     0 421040.553    0  671 671846.252 421040.553  37.3%     -    1s
     0     0 643079.572    0  355 671846.252 643079.572  4.28%     -    1s
     0     0 643170.564    0   85 671846.252 643170.564  4.27%     -    1s
     0     0 643301.768    0   85 671846.252 643301.768  4.25%     -    1s
     0     0 643308.552    0   85 671846.252 643308.552  4.25%     -    1s
     0     0 643308.552    0   85 671846.252 643308.552  4.25%     -    1s
     0     0 643308.552    0   85 671846.252 643308.552  4.25%     -    1s
     0     2 643308.552    0   85 671846.252 643308.552  4.25%     -    2s
H   78   111                    643406.38638 643324.295  0.01%  35.3    4s
*   78   111              25    643406.38638 643324.295  0.01%  35.3    4s

Cutting planes:
  Gomory: 13
  Lift-and-project: 17
  Implied bound: 289
  MIR: 38
  Flow cover: 73
  RLT: 332
  Relax-and-lift: 103

Explored 122 nodes (24871 simplex iterations) in 5.05 seconds (6.58 work units)
Thread count was 4 (of 128 available processors)

Solution count 3: 643406 643406 671846 

Optimal solution found (tolerance 1.00e-03)
Warning: max constraint violation (1.2858e-09) exceeds tolerance
Best objective 6.434063759838e+05, best bound 6.433242946510e+05, gap 0.0128%
